50

100 11 268
99 11 278
97 26 219
97 18 162
97 4 206
93 11 262
93 21 193
92 19 179
92 16 185
88 16 245
83 7 194
83 21 205
79 9 198
76 13 141
76 14 152
75 21 227
72 8 223
71 16 212
70 14 172
69 21 196
67 2 292
66 3 223
63 2 259
62 10 144
62 17 199
61 16 263
61 19 299
51 16 159
50 13 151
44 7 254
44 14 233
43 10 262
43 1 238
40 9 289
39 10 145
37 5 181
37 7 210
30 8 277
23 3 284
20 2 221
19 5 186
18 5 297
17 5 147
15 4 140
14 3 272
13 2 296
13 2 235
12 1 160
8 2 216
8 1 249
